30263
29575
29575
29402
29182
29182
29182
29182
29182
29152
29152
29152
29152
29152
29152
29152
29152
29152
29152
29152
29152
29152
29152
29152
29152
29152
29152
29152
29152
29152
29152
29152
29152
29152
29152
29152
28568
28568
28568
28568
28568
28568
28568
28568
28568
28568
28568
28568
28568
28568
28568
28568
28568
28568
28568
28568
28568
28568
28568
28568
28568
28568
28568
28568
28568
28568
28568
28568
28568
28568
28568
28568
28568
28568
28568
28568
28568
28568
28568
28568
28568
28568
28568
28568
28568
28568
28568
28568
28568
28568
28568
28568
28568
28568
28568
28568
28568
28568
28568
28568
Elapsed Time: 28568
best_firefly: 28568

